Minimize
	value: tt

Subject to
tt + 2000 s_1_1 > 0
tt - t_1_1 - 2000.000000 s_1_1 > -1999.671900
tt + 2000 s_2_1 > 0
tt - t_2_1 - 2000.000000 s_2_1 > -1997.983500
tt + 2000 s_1_2 > 0
tt - t_1_2 - 2000.000000 s_1_2 > -1991.020400
tt + 2000 s_2_2 > 0
tt - t_2_2 - 2000.000000 s_2_2 > -1987.785200
tt + 2000 s_1_3 > 0
tt - t_1_3 - 2000.000000 s_1_3 > -1953.272700
tt + 2000 s_2_3 > 0
tt - t_2_3 - 2000.000000 s_2_3 > -1927.111700
tt + 2000 s_1_4 > 0
tt - t_1_4 - 2021.936975 s_1_4 + 21.936975 s_1_2 > -1999.734100
tt + 2000 s_2_4 > 0
tt - t_2_4 - 2043.873950 s_2_4 + 43.873950 s_2_2 > -1998.497800
s_1_1 + s_2_1  = 1
s_1_2 + s_2_2  = 1
s_1_3 + s_2_3  = 1
s_1_4 + s_2_4  = 1
t_1_1 - t_1_2 + 2000.000000 u_1_1_2 > 8.979600
t_1_2 - t_1_1 - 2000.000000 u_1_1_2 > -1999.671900
t_2_1 - t_2_2 + 2000.000000 u_2_1_2 > 12.214800
t_2_2 - t_2_1 - 2000.000000 u_2_1_2 > -1997.983500
t_1_1 - t_1_3 + 2000.000000 u_1_1_3 > 46.727300
t_1_3 - t_1_1 - 2000.000000 u_1_1_3 > -1999.671900
t_2_1 - t_2_3 + 2000.000000 u_2_1_3 > 72.888300
t_2_3 - t_2_1 - 2000.000000 u_2_1_3 > -1997.983500
t_1_4 - t_1_1 - 2000.000000 s_1_1 > -1997.171900
t_1_4 - t_2_1 - 2000.000000 s_2_1 > -1992.983500
t_2_4 - t_1_1 - 2000.000000 s_1_1 > -1997.171900
t_2_4 - t_2_1 - 2000.000000 s_2_1 > -1992.983500
t_1_2 - t_1_1 + 2000.000000 u_1_2_1 > 0.328100
t_1_1 - t_1_2 - 2000.000000 u_1_2_1 > -1991.020400
t_2_2 - t_2_1 + 2000.000000 u_2_2_1 > 2.016500
t_2_1 - t_2_2 - 2000.000000 u_2_2_1 > -1987.785200
t_1_2 - t_1_3 + 2000.000000 u_1_2_3 > 46.727300
t_1_3 - t_1_2 - 2000.000000 u_1_2_3 > -1991.020400
t_2_2 - t_2_3 + 2000.000000 u_2_2_3 > 72.888300
t_2_3 - t_2_2 - 2000.000000 u_2_2_3 > -1987.785200
t_1_4 - t_1_2 - 2000.000000 s_1_2 > -1988.520400
t_1_4 - t_2_2 - 2000.000000 s_2_2 > -1982.785200
t_2_4 - t_1_2 - 2000.000000 s_1_2 > -1988.520400
t_2_4 - t_2_2 - 2000.000000 s_2_2 > -1982.785200
t_1_3 - t_1_1 + 2000.000000 u_1_3_1 > 0.328100
t_1_1 - t_1_3 - 2000.000000 u_1_3_1 > -1953.272700
t_2_3 - t_2_1 + 2000.000000 u_2_3_1 > 2.016500
t_2_1 - t_2_3 - 2000.000000 u_2_3_1 > -1927.111700
t_1_3 - t_1_2 + 2000.000000 u_1_3_2 > 8.979600
t_1_2 - t_1_3 - 2000.000000 u_1_3_2 > -1953.272700
t_2_3 - t_2_2 + 2000.000000 u_2_3_2 > 12.214800
t_2_2 - t_2_3 - 2000.000000 u_2_3_2 > -1927.111700
t_1_4 - t_1_3 - 2000.000000 s_1_3 > -1950.772700
t_1_4 - t_2_3 - 2000.000000 s_2_3 > -1922.111700
t_2_4 - t_1_3 - 2000.000000 s_1_3 > -1950.772700
t_2_4 - t_2_3 - 2000.000000 s_2_3 > -1922.111700
t_1_4 - t_1_1 - 2000.000000 s_1_1 > -1997.171900
t_1_4 - t_2_1 - 2000.000000 s_2_1 > -1992.983500
t_2_4 - t_1_1 - 2000.000000 s_1_1 > -1997.171900
t_2_4 - t_2_1 - 2000.000000 s_2_1 > -1992.983500
t_1_4 - t_1_2 - 2000.000000 s_1_2 > -1988.520400
t_1_4 - t_2_2 - 2000.000000 s_2_2 > -1982.785200
t_2_4 - t_1_2 - 2000.000000 s_1_2 > -1988.520400
t_2_4 - t_2_2 - 2000.000000 s_2_2 > -1982.785200
t_1_4 - t_1_3 - 2000.000000 s_1_3 > -1950.772700
t_1_4 - t_2_3 - 2000.000000 s_2_3 > -1922.111700
t_2_4 - t_1_3 - 2000.000000 s_1_3 > -1950.772700
t_2_4 - t_2_3 - 2000.000000 s_2_3 > -1922.111700
Binary
s_1_1
s_2_1
s_1_2
s_2_2
s_1_3
s_2_3
s_1_4
s_2_4
u_1_1_2
u_2_1_2
u_1_1_3
u_2_1_3
u_1_2_1
u_2_2_1
u_1_2_3
u_2_2_3
u_1_3_1
u_2_3_1
u_1_3_2
u_2_3_2

End
